language Essence 1.3

letting class be
        function(1 --> 3, 2 --> 2, 3 --> 4, 4 --> 4, 5 --> 9, 6 --> 8, 7 --> 5, 8 --> 9, 9 --> 6, 10 --> 6, 11 --> 9,
                 12 --> 8, 13 --> 10, 14 --> 9, 15 --> 2, 16 --> 8, 17 --> 3, 18 --> 6, 19 --> 7, 20 --> 5, 21 --> 3,
                 22 --> 7, 23 --> 8, 24 --> 10, 25 --> 2, 26 --> 5, 27 --> 1, 28 --> 9)
letting deck_length be 94
letting deck_width be 23
letting length be
        function(1 --> 3, 2 --> 1, 3 --> 1, 4 --> 1, 5 --> 1, 6 --> 1, 7 --> 1, 8 --> 1, 9 --> 26, 10 --> 5, 11 --> 1,
                 12 --> 1, 13 --> 1, 14 --> 1, 15 --> 1, 16 --> 1, 17 --> 2, 18 --> 1, 19 --> 1, 20 --> 1, 21 --> 1,
                 22 --> 1, 23 --> 1, 24 --> 1, 25 --> 1, 26 --> 1, 27 --> 2, 28 --> 5)
letting n_classes be 10
letting n_containers be 28
letting separation be function({6, 7} --> 17)
letting width be
        function(1 --> 3, 2 --> 14, 3 --> 17, 4 --> 13, 5 --> 5, 6 --> 12, 7 --> 17, 8 --> 9, 9 --> 23, 10 --> 21,
                 11 --> 10, 12 --> 2, 13 --> 2, 14 --> 22, 15 --> 13, 16 --> 20, 17 --> 20, 18 --> 1, 19 --> 21,
                 20 --> 21, 21 --> 17, 22 --> 22, 23 --> 2, 24 --> 11, 25 --> 17, 26 --> 19, 27 --> 9, 28 --> 22)
